certificates/rado_a13_c140_N32.cnf
c Rad2 upper bound instance: x1 + 13*x2 - x3 = 140, interval [1,32]
p cnf 32 158
1 4 11 0
-1 -4 -11 0
1 12 17 0
-1 -12 -17 0
1 13 30 0
-1 -13 -30 0
2 5 11 0
-2 -5 -11 0
2 12 18 0
-2 -12 -18 0
2 13 31 0
-2 -13 -31 0
3 6 11 0
-3 -6 -11 0
3 12 19 0
-3 -12 -19 0
3 13 32 0
-3 -13 -32 0
4 7 11 0
-4 -7 -11 0
4 12 20 0
-4 -12 -20 0
5 8 11 0
-5 -8 -11 0
5 12 21 0
-5 -12 -21 0
6 9 11 0
-6 -9 -11 0
6 12 22 0
-6 -12 -22 0
7 10 11 0
-7 -10 -11 0
7 12 23 0
-7 -12 -23 0
8 11 0
-8 -11 0
8 12 24 0
-8 -12 -24 0
9 11 12 0
-9 -11 -12 0
9 12 25 0
-9 -12 -25 0
10 11 13 0
-10 -11 -13 0
10 12 26 0
-10 -12 -26 0
1 10 11 0
-1 -10 -11 0
11 14 0
-11 -14 0
11 12 27 0
-11 -12 -27 0
2 10 12 0
-2 -10 -12 0
11 12 15 0
-11 -12 -15 0
12 28 0
-12 -28 0
3 10 13 0
-3 -10 -13 0
11 13 16 0
-11 -13 -16 0
12 13 29 0
-12 -13 -29 0
4 10 14 0
-4 -10 -14 0
11 14 17 0
-11 -14 -17 0
12 14 30 0
-12 -14 -30 0
5 10 15 0
-5 -10 -15 0
11 15 18 0
-11 -15 -18 0
12 15 31 0
-12 -15 -31 0
6 10 16 0
-6 -10 -16 0
11 16 19 0
-11 -16 -19 0
12 16 32 0
-12 -16 -32 0
7 10 17 0
-7 -10 -17 0
11 17 20 0
-11 -17 -20 0
8 10 18 0
-8 -10 -18 0
11 18 21 0
-11 -18 -21 0
9 10 19 0
-9 -10 -19 0
11 19 22 0
-11 -19 -22 0
10 20 0
-10 -20 0
11 20 23 0
-11 -20 -23 0
10 11 21 0
-10 -11 -21 0
11 21 24 0
-11 -21 -24 0
10 12 22 0
-10 -12 -22 0
11 22 25 0
-11 -22 -25 0
10 13 23 0
-10 -13 -23 0
11 23 26 0
-11 -23 -26 0
1 9 24 0
-1 -9 -24 0
10 14 24 0
-10 -14 -24 0
11 24 27 0
-11 -24 -27 0
2 9 25 0
-2 -9 -25 0
10 15 25 0
-10 -15 -25 0
11 25 28 0
-11 -25 -28 0
3 9 26 0
-3 -9 -26 0
10 16 26 0
-10 -16 -26 0
11 26 29 0
-11 -26 -29 0
4 9 27 0
-4 -9 -27 0
10 17 27 0
-10 -17 -27 0
11 27 30 0
-11 -27 -30 0
5 9 28 0
-5 -9 -28 0
10 18 28 0
-10 -18 -28 0
11 28 31 0
-11 -28 -31 0
6 9 29 0
-6 -9 -29 0
10 19 29 0
-10 -19 -29 0
11 29 32 0
-11 -29 -32 0
7 9 30 0
-7 -9 -30 0
10 20 30 0
-10 -20 -30 0
8 9 31 0
-8 -9 -31 0
10 21 31 0
-10 -21 -31 0
9 32 0
-9 -32 0
10 22 32 0
-10 -22 -32 0
