certificates/rado_a13_c140_N32.drat
11 -30 9 0
-30 -31 -32 0
-11 -7 0
-12 11 9 0
11 9 0
d -12 11 9 0
d 12 11 9 0
-32 0
9 0
-11 0
8 0
14 0
29 0
-31 0
-6 0
28 0
3 0
-12 0
-5 0
-26 0
22 0
27 0
15 0
16 0
2 0
21 0
23 0
10 0
-4 0
-17 0
-25 0
-13 0
-18 0
-20 0
-24 0
-19 0
1 0
7 0
0
